c Reduced graph for r10 generated by Cyril Grelier
p edge 150 1409
e 1 2
e 1 4
e 1 11
e 1 28
e 1 44
e 1 50
e 1 68
e 1 79
e 1 84
e 1 89
e 1 100
e 1 112
e 1 118
e 1 122
e 1 125
e 1 126
e 1 131
e 1 141
e 1 143
e 1 146
e 2 4
e 2 11
e 2 31
e 2 40
e 2 49
e 2 50
e 2 72
e 2 73
e 2 79
e 2 90
e 2 94
e 2 95
e 2 96
e 2 100
e 2 112
e 2 124
e 2 126
e 2 131
e 2 132
e 2 135
e 2 141
e 2 143
e 3 7
e 3 15
e 3 29
e 3 36
e 3 42
e 3 46
e 3 51
e 3 52
e 3 87
e 3 99
e 3 102
e 3 122
e 3 126
e 3 129
e 3 139
e 3 148
e 3 150
e 4 11
e 4 12
e 4 26
e 4 50
e 4 56
e 4 63
e 4 79
e 4 81
e 4 92
e 4 100
e 4 112
e 4 123
e 4 126
e 4 131
e 4 141
e 4 143
e 4 150
e 5 9
e 5 16
e 5 20
e 5 23
e 5 27
e 5 28
e 5 49
e 5 51
e 5 53
e 5 67
e 5 76
e 5 92
e 5 109
e 5 111
e 5 127
e 5 133
e 5 138
e 5 141
e 6 22
e 6 23
e 6 36
e 6 37
e 6 45
e 6 47
e 6 62
e 6 70
e 6 72
e 6 85
e 6 91
e 6 97
e 6 98
e 6 100
e 6 106
e 6 115
e 6 118
e 6 120
e 6 121
e 6 140
e 6 142
e 7 20
e 7 24
e 7 29
e 7 42
e 7 46
e 7 47
e 7 52
e 7 78
e 7 88
e 7 104
e 7 126
e 7 130
e 7 132
e 7 137
e 7 146
e 8 9
e 8 15
e 8 19
e 8 21
e 8 29
e 8 33
e 8 39
e 8 40
e 8 55
e 8 61
e 8 63
e 8 65
e 8 78
e 8 91
e 8 97
e 8 103
e 8 108
e 8 112
e 8 147
e 9 15
e 9 19
e 9 23
e 9 28
e 9 49
e 9 55
e 9 65
e 9 67
e 9 76
e 9 78
e 9 92
e 9 97
e 9 109
e 9 112
e 9 147
e 10 13
e 10 17
e 10 21
e 10 32
e 10 34
e 10 41
e 10 44
e 10 53
e 10 55
e 10 58
e 10 74
e 10 75
e 10 76
e 10 80
e 10 94
e 10 114
e 10 115
e 10 116
e 10 117
e 10 129
e 10 137
e 10 143
e 11 33
e 11 50
e 11 59
e 11 67
e 11 79
e 11 82
e 11 99
e 11 100
e 11 112
e 11 116
e 11 126
e 11 131
e 11 141
e 11 142
e 11 143
e 12 26
e 12 31
e 12 56
e 12 63
e 12 81
e 12 83
e 12 89
e 12 92
e 12 123
e 12 128
e 12 138
e 12 150
e 13 17
e 13 18
e 13 21
e 13 34
e 13 38
e 13 42
e 13 58
e 13 59
e 13 73
e 13 74
e 13 75
e 13 76
e 13 84
e 13 85
e 13 111
e 13 113
e 13 114
e 13 123
e 13 129
e 13 136
e 13 137
e 13 143
e 14 18
e 14 22
e 14 24
e 14 35
e 14 39
e 14 54
e 14 58
e 14 60
e 14 68
e 14 70
e 14 71
e 14 83
e 14 86
e 14 87
e 14 90
e 14 109
e 14 110
e 14 117
e 14 133
e 14 144
e 15 19
e 15 36
e 15 51
e 15 55
e 15 65
e 15 78
e 15 87
e 15 97
e 15 99
e 15 102
e 15 112
e 15 122
e 15 129
e 15 139
e 15 147
e 15 148
e 15 150
e 16 20
e 16 27
e 16 51
e 16 53
e 16 74
e 16 77
e 16 81
e 16 82
e 16 93
e 16 98
e 16 111
e 16 119
e 16 127
e 16 133
e 16 135
e 16 138
e 16 141
e 17 21
e 17 34
e 17 56
e 17 58
e 17 69
e 17 74
e 17 75
e 17 76
e 17 95
e 17 101
e 17 114
e 17 125
e 17 127
e 17 129
e 17 137
e 17 143
e 18 24
e 18 35
e 18 38
e 18 39
e 18 42
e 18 59
e 18 60
e 18 70
e 18 73
e 18 83
e 18 84
e 18 85
e 18 86
e 18 87
e 18 109
e 18 111
e 18 113
e 18 117
e 18 123
e 18 136
e 19 25
e 19 26
e 19 30
e 19 52
e 19 55
e 19 60
e 19 65
e 19 78
e 19 96
e 19 97
e 19 106
e 19 112
e 19 114
e 19 145
e 19 147
e 20 24
e 20 27
e 20 47
e 20 51
e 20 53
e 20 78
e 20 88
e 20 104
e 20 111
e 20 127
e 20 130
e 20 132
e 20 133
e 20 137
e 20 138
e 20 141
e 20 146
e 21 29
e 21 33
e 21 34
e 21 39
e 21 40
e 21 58
e 21 61
e 21 63
e 21 74
e 21 75
e 21 76
e 21 91
e 21 103
e 21 108
e 21 114
e 21 129
e 21 137
e 21 143
e 22 23
e 22 36
e 22 47
e 22 54
e 22 58
e 22 62
e 22 68
e 22 71
e 22 85
e 22 90
e 22 91
e 22 98
e 22 100
e 22 106
e 22 110
e 22 115
e 22 120
e 22 133
e 22 144
e 23 28
e 23 36
e 23 47
e 23 49
e 23 62
e 23 67
e 23 76
e 23 85
e 23 91
e 23 92
e 23 98
e 23 100
e 23 106
e 23 109
e 23 115
e 23 120
e 24 35
e 24 39
e 24 47
e 24 60
e 24 70
e 24 78
e 24 83
e 24 86
e 24 87
e 24 88
e 24 104
e 24 109
e 24 117
e 24 130
e 24 132
e 24 137
e 24 146
e 25 26
e 25 30
e 25 38
e 25 41
e 25 52
e 25 60
e 25 61
e 25 93
e 25 96
e 25 106
e 25 114
e 25 130
e 25 134
e 25 140
e 25 144
e 25 145
e 26 30
e 26 52
e 26 56
e 26 60
e 26 63
e 26 81
e 26 92
e 26 96
e 26 106
e 26 114
e 26 123
e 26 145
e 26 150
e 27 34
e 27 46
e 27 48
e 27 51
e 27 53
e 27 57
e 27 66
e 27 86
e 27 105
e 27 111
e 27 120
e 27 127
e 27 133
e 27 138
e 27 141
e 27 147
e 28 44
e 28 49
e 28 67
e 28 68
e 28 76
e 28 84
e 28 89
e 28 92
e 28 109
e 28 118
e 28 122
e 28 125
e 28 146
e 29 33
e 29 39
e 29 40
e 29 42
e 29 46
e 29 52
e 29 61
e 29 63
e 29 91
e 29 103
e 29 108
e 29 126
e 30 32
e 30 37
e 30 52
e 30 60
e 30 79
e 30 96
e 30 101
e 30 103
e 30 104
e 30 105
e 30 106
e 30 107
e 30 110
e 30 114
e 30 119
e 30 145
e 30 148
e 31 40
e 31 49
e 31 72
e 31 73
e 31 83
e 31 89
e 31 90
e 31 94
e 31 95
e 31 96
e 31 124
e 31 128
e 31 132
e 31 135
e 31 138
e 32 37
e 32 41
e 32 44
e 32 53
e 32 55
e 32 79
e 32 80
e 32 94
e 32 101
e 32 103
e 32 104
e 32 105
e 32 107
e 32 110
e 32 115
e 32 116
e 32 117
e 32 119
e 32 148
e 33 39
e 33 40
e 33 59
e 33 61
e 33 63
e 33 67
e 33 82
e 33 91
e 33 99
e 33 103
e 33 108
e 33 116
e 33 142
e 34 46
e 34 48
e 34 57
e 34 58
e 34 66
e 34 74
e 34 75
e 34 76
e 34 86
e 34 105
e 34 114
e 34 120
e 34 129
e 34 137
e 34 143
e 34 147
e 35 39
e 35 43
e 35 60
e 35 62
e 35 64
e 35 65
e 35 70
e 35 75
e 35 83
e 35 86
e 35 87
e 35 107
e 35 109
e 35 117
e 35 124
e 35 134
e 35 149
e 36 47
e 36 51
e 36 62
e 36 85
e 36 87
e 36 91
e 36 98
e 36 99
e 36 100
e 36 102
e 36 106
e 36 115
e 36 120
e 36 122
e 36 129
e 36 139
e 36 148
e 36 150
e 37 45
e 37 70
e 37 72
e 37 79
e 37 97
e 37 101
e 37 103
e 37 104
e 37 105
e 37 107
e 37 110
e 37 118
e 37 119
e 37 121
e 37 140
e 37 142
e 37 148
e 38 41
e 38 42
e 38 59
e 38 61
e 38 73
e 38 84
e 38 85
e 38 93
e 38 111
e 38 113
e 38 123
e 38 130
e 38 134
e 38 136
e 38 140
e 38 144
e 39 40
e 39 60
e 39 61
e 39 63
e 39 70
e 39 83
e 39 86
e 39 87
e 39 91
e 39 103
e 39 108
e 39 109
e 39 117
e 40 49
e 40 61
e 40 63
e 40 72
e 40 73
e 40 90
e 40 91
e 40 94
e 40 95
e 40 96
e 40 103
e 40 108
e 40 124
e 40 132
e 40 135
e 41 44
e 41 53
e 41 55
e 41 61
e 41 80
e 41 93
e 41 94
e 41 115
e 41 116
e 41 117
e 41 130
e 41 134
e 41 140
e 41 144
e 42 46
e 42 52
e 42 59
e 42 73
e 42 84
e 42 85
e 42 111
e 42 113
e 42 123
e 42 126
e 42 136
e 43 45
e 43 48
e 43 62
e 43 64
e 43 65
e 43 71
e 43 75
e 43 80
e 43 102
e 43 107
e 43 124
e 43 128
e 43 134
e 43 149
e 44 53
e 44 55
e 44 68
e 44 80
e 44 84
e 44 89
e 44 94
e 44 115
e 44 116
e 44 117
e 44 118
e 44 122
e 44 125
e 44 146
e 45 48
e 45 70
e 45 71
e 45 72
e 45 80
e 45 97
e 45 102
e 45 118
e 45 121
e 45 128
e 45 140
e 45 142
e 46 48
e 46 52
e 46 57
e 46 66
e 46 86
e 46 105
e 46 120
e 46 126
e 46 147
e 47 62
e 47 78
e 47 85
e 47 88
e 47 91
e 47 98
e 47 100
e 47 104
e 47 106
e 47 115
e 47 120
e 47 130
e 47 132
e 47 137
e 47 146
e 48 57
e 48 66
e 48 71
e 48 80
e 48 86
e 48 102
e 48 105
e 48 120
e 48 128
e 48 147
e 49 67
e 49 72
e 49 73
e 49 76
e 49 90
e 49 92
e 49 94
e 49 95
e 49 96
e 49 109
e 49 124
e 49 132
e 49 135
e 50 64
e 50 66
e 50 77
e 50 79
e 50 88
e 50 100
e 50 112
e 50 126
e 50 131
e 50 136
e 50 141
e 50 143
e 51 53
e 51 87
e 51 99
e 51 102
e 51 111
e 51 122
e 51 127
e 51 129
e 51 133
e 51 138
e 51 139
e 51 141
e 51 148
e 51 150
e 52 60
e 52 96
e 52 106
e 52 114
e 52 126
e 52 145
e 53 55
e 53 80
e 53 94
e 53 111
e 53 115
e 53 116
e 53 117
e 53 127
e 53 133
e 53 138
e 53 141
e 54 57
e 54 58
e 54 68
e 54 69
e 54 71
e 54 90
e 54 108
e 54 110
e 54 113
e 54 121
e 54 131
e 54 133
e 54 139
e 54 144
e 54 145
e 54 149
e 55 65
e 55 78
e 55 80
e 55 94
e 55 97
e 55 112
e 55 115
e 55 116
e 55 117
e 55 147
e 56 63
e 56 69
e 56 81
e 56 92
e 56 95
e 56 101
e 56 123
e 56 125
e 56 127
e 56 150
e 57 66
e 57 69
e 57 86
e 57 105
e 57 108
e 57 113
e 57 120
e 57 121
e 57 131
e 57 139
e 57 145
e 57 147
e 57 149
e 58 68
e 58 71
e 58 74
e 58 75
e 58 76
e 58 90
e 58 110
e 58 114
e 58 129
e 58 133
e 58 137
e 58 143
e 58 144
e 59 67
e 59 73
e 59 82
e 59 84
e 59 85
e 59 99
e 59 111
e 59 113
e 59 116
e 59 123
e 59 136
e 59 142
e 60 70
e 60 83
e 60 86
e 60 87
e 60 96
e 60 106
e 60 109
e 60 114
e 60 117
e 60 145
e 61 63
e 61 91
e 61 93
e 61 103
e 61 108
e 61 130
e 61 134
e 61 140
e 61 144
e 62 64
e 62 65
e 62 75
e 62 85
e 62 91
e 62 98
e 62 100
e 62 106
e 62 107
e 62 115
e 62 120
e 62 124
e 62 134
e 62 149
e 63 81
e 63 91
e 63 92
e 63 103
e 63 108
e 63 123
e 63 150
e 64 65
e 64 66
e 64 75
e 64 77
e 64 88
e 64 107
e 64 124
e 64 134
e 64 136
e 64 149
e 65 75
e 65 78
e 65 97
e 65 107
e 65 112
e 65 124
e 65 134
e 65 147
e 65 149
e 66 77
e 66 86
e 66 88
e 66 105
e 66 120
e 66 136
e 66 147
e 67 76
e 67 82
e 67 92
e 67 99
e 67 109
e 67 116
e 67 142
e 68 71
e 68 84
e 68 89
e 68 90
e 68 110
e 68 118
e 68 122
e 68 125
e 68 133
e 68 144
e 68 146
e 69 95
e 69 101
e 69 108
e 69 113
e 69 121
e 69 125
e 69 127
e 69 131
e 69 139
e 69 145
e 69 149
e 70 72
e 70 83
e 70 86
e 70 87
e 70 97
e 70 109
e 70 117
e 70 118
e 70 121
e 70 140
e 70 142
e 71 80
e 71 90
e 71 102
e 71 110
e 71 128
e 71 133
e 71 144
e 72 73
e 72 90
e 72 94
e 72 95
e 72 96
e 72 97
e 72 118
e 72 121
e 72 124
e 72 132
e 72 135
e 72 140
e 72 142
e 73 84
e 73 85
e 73 90
e 73 94
e 73 95
e 73 96
e 73 111
e 73 113
e 73 123
e 73 124
e 73 132
e 73 135
e 73 136
e 74 75
e 74 76
e 74 77
e 74 81
e 74 82
e 74 93
e 74 98
e 74 114
e 74 119
e 74 129
e 74 135
e 74 137
e 74 143
e 75 76
e 75 107
e 75 114
e 75 124
e 75 129
e 75 134
e 75 137
e 75 143
e 75 149
e 76 92
e 76 109
e 76 114
e 76 129
e 76 137
e 76 143
e 77 81
e 77 82
e 77 88
e 77 93
e 77 98
e 77 119
e 77 135
e 77 136
e 78 88
e 78 97
e 78 104
e 78 112
e 78 130
e 78 132
e 78 137
e 78 146
e 78 147
e 79 100
e 79 101
e 79 103
e 79 104
e 79 105
e 79 107
e 79 110
e 79 112
e 79 119
e 79 126
e 79 131
e 79 141
e 79 143
e 79 148
e 80 94
e 80 102
e 80 115
e 80 116
e 80 117
e 80 128
e 81 82
e 81 92
e 81 93
e 81 98
e 81 119
e 81 123
e 81 135
e 81 150
e 82 93
e 82 98
e 82 99
e 82 116
e 82 119
e 82 135
e 82 142
e 83 86
e 83 87
e 83 89
e 83 109
e 83 117
e 83 128
e 83 138
e 84 85
e 84 89
e 84 111
e 84 113
e 84 118
e 84 122
e 84 123
e 84 125
e 84 136
e 84 146
e 85 91
e 85 98
e 85 100
e 85 106
e 85 111
e 85 113
e 85 115
e 85 120
e 85 123
e 85 136
e 86 87
e 86 105
e 86 109
e 86 117
e 86 120
e 86 147
e 87 99
e 87 102
e 87 109
e 87 117
e 87 122
e 87 129
e 87 139
e 87 148
e 87 150
e 88 104
e 88 130
e 88 132
e 88 136
e 88 137
e 88 146
e 89 118
e 89 122
e 89 125
e 89 128
e 89 138
e 89 146
e 90 94
e 90 95
e 90 96
e 90 110
e 90 124
e 90 132
e 90 133
e 90 135
e 90 144
e 91 98
e 91 100
e 91 103
e 91 106
e 91 108
e 91 115
e 91 120
e 92 109
e 92 123
e 92 150
e 93 98
e 93 119
e 93 130
e 93 134
e 93 135
e 93 140
e 93 144
e 94 95
e 94 96
e 94 115
e 94 116
e 94 117
e 94 124
e 94 132
e 94 135
e 95 96
e 95 101
e 95 124
e 95 125
e 95 127
e 95 132
e 95 135
e 96 106
e 96 114
e 96 124
e 96 132
e 96 135
e 96 145
e 97 112
e 97 118
e 97 121
e 97 140
e 97 142
e 97 147
e 98 100
e 98 106
e 98 115
e 98 119
e 98 120
e 98 135
e 99 102
e 99 116
e 99 122
e 99 129
e 99 139
e 99 142
e 99 148
e 99 150
e 100 106
e 100 112
e 100 115
e 100 120
e 100 126
e 100 131
e 100 141
e 100 143
e 101 103
e 101 104
e 101 105
e 101 107
e 101 110
e 101 119
e 101 125
e 101 127
e 101 148
e 102 122
e 102 128
e 102 129
e 102 139
e 102 148
e 102 150
e 103 104
e 103 105
e 103 107
e 103 108
e 103 110
e 103 119
e 103 148
e 104 105
e 104 107
e 104 110
e 104 119
e 104 130
e 104 132
e 104 137
e 104 146
e 104 148
e 105 107
e 105 110
e 105 119
e 105 120
e 105 147
e 105 148
e 106 114
e 106 115
e 106 120
e 106 145
e 107 110
e 107 119
e 107 124
e 107 134
e 107 148
e 107 149
e 108 113
e 108 121
e 108 131
e 108 139
e 108 145
e 108 149
e 109 117
e 110 119
e 110 133
e 110 144
e 110 148
e 111 113
e 111 123
e 111 127
e 111 133
e 111 136
e 111 138
e 111 141
e 112 126
e 112 131
e 112 141
e 112 143
e 112 147
e 113 121
e 113 123
e 113 131
e 113 136
e 113 139
e 113 145
e 113 149
e 114 129
e 114 137
e 114 143
e 114 145
e 115 116
e 115 117
e 115 120
e 116 117
e 116 142
e 118 121
e 118 122
e 118 125
e 118 140
e 118 142
e 118 146
e 119 135
e 119 148
e 120 147
e 121 131
e 121 139
e 121 140
e 121 142
e 121 145
e 121 149
e 122 125
e 122 129
e 122 139
e 122 146
e 122 148
e 122 150
e 123 136
e 123 150
e 124 132
e 124 134
e 124 135
e 124 149
e 125 127
e 125 146
e 126 131
e 126 141
e 126 143
e 127 133
e 127 138
e 127 141
e 128 138
e 129 137
e 129 139
e 129 143
e 129 148
e 129 150
e 130 132
e 130 134
e 130 137
e 130 140
e 130 144
e 130 146
e 131 139
e 131 141
e 131 143
e 131 145
e 131 149
e 132 135
e 132 137
e 132 146
e 133 138
e 133 141
e 133 144
e 134 140
e 134 144
e 134 149
e 137 143
e 137 146
e 138 141
e 139 145
e 139 148
e 139 149
e 139 150
e 140 142
e 140 144
e 141 143
e 145 149
e 148 150
